p edge 64 512
e 1 48
e 1 59
e 1 13
e 1 27
e 1 54
e 1 60
e 1 61
e 1 14
e 1 9
e 1 43
e 1 21
e 1 5
e 1 62
e 1 18
e 1 23
e 1 64
e 1 63
e 1 58
e 1 55
e 1 2
e 2 63
e 2 39
e 2 50
e 2 16
e 2 58
e 2 56
e 2 8
e 2 25
e 2 53
e 2 9
e 2 36
e 3 48
e 3 12
e 3 43
e 3 29
e 3 20
e 3 15
e 3 38
e 3 39
e 3 5
e 3 58
e 3 47
e 3 18
e 3 14
e 3 11
e 3 60
e 3 30
e 3 25
e 3 34
e 4 47
e 4 38
e 4 31
e 4 51
e 4 59
e 4 62
e 4 21
e 4 39
e 4 64
e 4 6
e 4 35
e 4 56
e 4 44
e 4 55
e 4 25
e 4 11
e 5 19
e 5 26
e 5 40
e 5 62
e 5 52
e 5 12
e 5 42
e 5 18
e 5 23
e 5 60
e 5 16
e 5 55
e 5 43
e 5 46
e 5 13
e 5 10
e 6 37
e 6 27
e 6 56
e 6 18
e 6 7
e 6 59
e 6 53
e 6 48
e 6 40
e 6 8
e 6 62
e 6 23
e 6 20
e 6 36
e 6 51
e 7 24
e 7 44
e 7 30
e 7 37
e 7 45
e 7 38
e 7 58
e 7 59
e 7 41
e 7 19
e 7 42
e 7 27
e 7 25
e 7 46
e 7 62
e 7 14
e 7 31
e 7 10
e 8 55
e 8 59
e 8 43
e 8 38
e 8 42
e 8 64
e 8 56
e 8 13
e 8 57
e 8 44
e 8 24
e 8 47
e 8 9
e 8 14
e 8 22
e 8 16
e 8 36
e 9 39
e 9 64
e 9 30
e 9 60
e 9 22
e 9 33
e 9 34
e 9 55
e 9 32
e 9 12
e 9 54
e 9 17
e 9 61
e 9 25
e 10 24
e 10 62
e 10 17
e 10 50
e 10 60
e 10 38
e 10 43
e 10 37
e 10 49
e 10 34
e 10 64
e 10 21
e 10 41
e 10 30
e 10 63
e 10 19
e 11 58
e 11 28
e 11 14
e 11 46
e 11 38
e 11 30
e 11 20
e 11 27
e 11 17
e 11 61
e 11 21
e 11 32
e 11 57
e 12 44
e 12 37
e 12 19
e 12 21
e 12 62
e 12 13
e 12 59
e 12 36
e 12 32
e 12 42
e 12 30
e 12 64
e 12 27
e 12 15
e 12 31
e 12 51
e 12 40
e 12 35
e 12 45
e 13 35
e 13 24
e 13 15
e 13 46
e 13 22
e 13 39
e 13 20
e 13 58
e 13 25
e 13 40
e 13 57
e 13 27
e 13 31
e 14 33
e 14 21
e 14 17
e 14 61
e 14 28
e 14 50
e 14 31
e 14 24
e 14 42
e 14 53
e 14 32
e 14 44
e 14 25
e 14 47
e 14 55
e 14 51
e 14 23
e 15 16
e 15 24
e 15 33
e 15 58
e 15 29
e 15 25
e 15 35
e 15 47
e 15 62
e 15 43
e 15 18
e 15 42
e 16 59
e 16 24
e 16 35
e 16 26
e 16 34
e 16 39
e 16 19
e 16 27
e 16 45
e 16 37
e 16 44
e 16 50
e 17 39
e 17 57
e 17 40
e 17 42
e 17 23
e 17 21
e 17 48
e 17 18
e 17 44
e 17 63
e 17 64
e 17 29
e 17 46
e 17 33
e 17 37
e 17 62
e 17 53
e 18 63
e 18 58
e 18 44
e 18 53
e 18 28
e 18 38
e 18 48
e 18 20
e 19 53
e 19 33
e 19 41
e 19 46
e 19 45
e 19 23
e 19 28
e 19 26
e 20 44
e 20 31
e 20 64
e 20 50
e 20 25
e 20 36
e 20 60
e 20 38
e 20 21
e 20 39
e 20 61
e 20 33
e 20 22
e 21 48
e 21 28
e 21 22
e 21 61
e 21 45
e 21 49
e 21 26
e 21 38
e 22 48
e 22 23
e 22 60
e 22 33
e 22 45
e 22 63
e 22 36
e 23 27
e 23 48
e 23 49
e 23 41
e 23 43
e 23 39
e 23 31
e 24 44
e 24 47
e 24 29
e 24 42
e 24 56
e 24 41
e 24 62
e 24 40
e 24 59
e 24 51
e 24 27
e 24 52
e 24 39
e 24 26
e 24 28
e 25 49
e 25 52
e 25 34
e 25 62
e 25 56
e 26 47
e 26 51
e 26 29
e 26 58
e 26 59
e 26 40
e 26 33
e 26 54
e 26 45
e 26 48
e 26 38
e 26 42
e 27 41
e 27 43
e 27 61
e 27 49
e 27 30
e 27 60
e 27 42
e 27 28
e 28 42
e 28 53
e 28 64
e 28 44
e 28 32
e 28 40
e 28 50
e 28 58
e 28 38
e 29 61
e 29 46
e 29 41
e 29 63
e 30 59
e 30 62
e 30 33
e 30 60
e 30 43
e 31 49
e 31 48
e 31 60
e 31 36
e 31 42
e 31 59
e 31 52
e 31 38
e 31 64
e 31 35
e 31 57
e 31 63
e 32 47
e 32 54
e 32 60
e 32 50
e 32 64
e 32 40
e 33 53
e 33 47
e 33 51
e 33 63
e 33 41
e 33 49
e 33 39
e 33 57
e 33 38
e 34 48
e 34 47
e 34 61
e 34 46
e 34 60
e 34 37
e 34 40
e 34 53
e 34 41
e 35 42
e 35 43
e 35 55
e 35 38
e 35 53
e 35 46
e 36 38
e 36 51
e 36 64
e 37 38
e 37 49
e 37 39
e 37 51
e 37 46
e 37 47
e 37 53
e 37 48
e 37 50
e 38 53
e 38 63
e 38 51
e 38 47
e 38 61
e 38 58
e 38 50
e 38 60
e 39 59
e 39 55
e 39 47
e 39 44
e 39 45
e 39 57
e 39 64
e 39 48
e 40 47
e 40 49
e 40 62
e 40 61
e 41 63
e 41 55
e 41 57
e 41 42
e 41 44
e 41 46
e 42 61
e 42 62
e 42 60
e 42 56
e 42 47
e 42 63
e 43 57
e 43 50
e 43 54
e 43 49
e 43 51
e 43 55
e 43 61
e 43 63
e 43 64
e 43 52
e 44 60
e 44 63
e 44 47
e 44 64
e 44 50
e 45 50
e 45 59
e 45 55
e 45 56
e 45 58
e 46 61
e 47 50
e 47 58
e 47 64
e 47 49
e 47 54
e 47 61
e 48 51
e 48 59
e 50 58
e 50 54
e 50 59
e 51 58
e 52 55
e 52 62
e 52 56
e 53 54
e 53 62
e 53 63
e 54 58
e 54 57
e 54 56
e 54 61
e 55 63
e 56 57
e 56 58
e 56 62
e 57 58
e 58 63
e 58 61
e 58 59
e 59 62
e 59 61
